(define-fun-rec
  u4
  ((x Int) (y Int)) Int (ite (<= x 0) y (+ (u4 (- x 1) y) x)))
(define-fun
  v4
  ((x Int)) Int (u4 x x))
(define-funs-rec
  ((u3
    ((x Int) (y Int) (z Int)) Int)
   (v3
    ((x Int) (y Int) (z Int)) Int))
  ((ite (<= x 0) y (* (u3 (- x 1) y z) (v3 (- x 1) y z)))
   (ite (<= x 0) z (u3 (- x 1) y z))))
(define-fun
  w3
  ((x Int) (y Int)) Int (u3 y x x))
(define-fun-rec
  u2
  ((x Int) (y Int)) Int (ite (<= x 0) y (w3 (u2 (- x 1) y) x)))
(define-fun
  j3
  ((x Int)) Int x)
(define-fun
  i3
  ((x Int)) Int x)
(define-fun
  h8
  ((x Int)) Int (div (* (+ 1 x) (+ 2 x)) 2))
(define-fun
  h6
  ((x Int) (y Int)) Int y)
(define-fun
  h4
  ((x Int)) Int x)
(define-fun
  h3
  ((x Int) (y Int)) Int y)
(define-fun
  h2
  ((x Int)) Int (+ 1 (v4 x)))
(define-fun
  v2
  ((x Int)) Int (u2 2 (h2 x)))
(define-fun-rec
  u1
  ((x Int) (y Int)) Int (ite (<= x 0) y (v2 (u1 (- x 1) y))))
(define-fun
  v1
  ((x Int) (y Int)) Int (u1 1 y))
(define-fun
  h1
  ((x Int) (y Int)) Int y)
(define-fun
  g5
  ((x Int)) Int x)
(define-fun
  g4
  ((x Int)) Int x)
(define-fun
  g3
  ((x Int)) Int x)
(define-fun
  g0
  ((x Int)) Int x)
(define-fun
  f8
  ((x Int)) Int (* x x))
(define-fun-rec
  u8
  ((x Int) (y Int)) Int (ite (<= x 0) y (f8 (u8 (- x 1) y))))
(define-fun
  v8
  ((x Int)) Int (u8 1 (h8 x)))
(define-fun
  f7
  ((x Int)) Int (* (* x x) x))
(define-fun-rec
  u7
  ((x Int) (y Int)) Int (ite (<= x 0) y (f7 (u7 (- x 1) y))))
(define-fun
  v7
  ((x Int)) Int (u7 1 (v8 x)))
(define-fun-rec
  u6
  ((x Int) (y Int)) Int (ite (<= x 0) y (v7 (u6 (- x 1) y))))
(define-fun
  v6
  ((x Int) (y Int)) Int (u6 1 y))
(define-fun
  f5
  ((x Int) (y Int)) Int (+ (v6 x y) x))
(define-fun-rec
  u5
  ((x Int) (y Int)) Int (ite (<= x 0) y (f5 (u5 (- x 1) y) x)))
(define-fun
  v5
  ((x Int)) Int (u5 x 1))
(define-fun
  f0
  ((x Int) (y Int)) Int (+ (v1 x y) x))
(define-fun-rec
  u0
  ((x Int) (y Int)) Int (ite (<= x 0) y (f0 (u0 (- x 1) y) x)))
(define-fun
  v0
  ((x Int)) Int (u0 x 1))
(assert-not
  (forall ((c Int)) (or (not (>= c 0)) (= (v0 c) (v5 c)))))
